100 36 100
89 99 47 80 30 62 63 20 12 81 5 76 74 37 92 67 63 10 50 88 98 64 73 53 50 31 4 39 65 67 81 6 18 81 87 43 2 20 7 83 25 83 57 14 75 77 29 38 79 70 88 43 43 41 45 27 46 84 92 65 18 99 35 99 38 35 42 92 7 1 75 32 84 84 98 11 61 28 49 40 50 38 83 93 31 29 72 29 65 17 46 83 68 81 82 58 68 76 50 27 
